NAME: tsp10_2
COMMENT: 10-tsp problem (Padberg/Rinaldi)
TYPE: TSP
DIMENSION: 10
EDGE_WEIGHT_TYPE : EUC_2D
NODE_COORD_SECTION
1 24 7
2 0 29
3 32 27
4 27 13
5 38 3
6 14 32
7 0 27
8 21 27
9 19 28
10 17 32
